Route #1: 109 130 56 8 100 111 113 59 91 33 107 9 114 20 162 7 3 96 90 42 62 179 55 164
Route #2: 78 148 141 98 84 153 180 32 61 40 18 185 70 76 15 27 187 124 140 189 154 53 65 23 121
Route #3: 46 135 92 81 145 35 2 36 12 24 147 150 30 39 89 104 142 85 138 28 95
Route #4: 183 136 167 123 52 71 177 146 186 87 152 54 126 181 41 174 151 48 137 176 5 47 101 125 86 77 22 38 6 102
Route #5: 68 21 178 69 158 132 74 161 134 79 17 155 60 116 82 122 11 175 50 94 144 115 133
Route #6: 168 4 163 128 34 73 10 25 97 143 80 169 159 58 43 112 51 93 75 173 157 166 67 170 14 31
Route #7: 37 29 83 184 160 182 149 1 165 88 44 127 172 45 99 118 131
Route #8: 105 19 188 57 63 64 66 13 120 110 171 103 108 129 156 72 139 16 26 117 49 119 106
Cost 17965.316592470233